10	5	2	0
0	1	9	3	10	9	2	7	1	8	4	5	[0 0 0]	[0 0 0]	[0 0 0]	[0 0 0]	[0 0 0]	[0 0 0]	[0 0 0]	[0 0 0]	[0 0 0]
1	3	2	9	11	[-1 2 2 3 1 1 0 12 -2]	[3 1 4]
2	3	3	11	9	5	[4 4 5]	[7 8 10 6 0 7 -3 0 -2]	[6 3 4 10 9 -3 0 0 14]
3	3	3	9	6	10	[-1 4 0 1 0 2 7 10 -2]	[4 8 6 1 0 2 7 11 12]	[3 2 -1 0 1 1 -1 -1 6]
4	3	3	8	11	6	[3 4 4 18 15 6 -1 3 2]	[2 9 2]	[3 1 5 21 17 8 6 4 0]
5	3	3	8	11	7	[4 27 22 -6 12 -6 0 12 22]	[9 8 8]	[6 15 4 22 21 12 1 19 22]
6	3	2	4	11	[-20 -5 -10 -6 -19 -8 -6 -12 -6]	[1 5 10]
7	3	1	11	[8 8 6]
8	3	2	11	5	[8 2 7]	[-12 -17 -7 -21 -10 -20 -20 -12 -5]
9	3	2	11	1	[5 3 3]	[-4 -11 -8 -3 -11 -9 -3 -2 -4]
10	3	1	11	[8 7 6]
11	1	0
0	1	0	0	0	0	0	0	0	0
1	1	3	1	5	3	4	5	4	2
	2	1	1	5	3	4	5	4	2
	3	4	1	5	3	4	5	4	2
2	1	4	3	5	1	3	5	3	5
	2	4	3	5	1	3	5	3	5
	3	5	3	5	1	3	5	3	5
3	1	3	4	2	4	2	3	2	5
	2	1	4	2	4	2	3	2	5
	3	4	4	2	4	2	3	2	5
4	1	2	2	4	4	3	3	4	3
	2	9	2	4	4	3	3	4	3
	3	2	2	4	4	3	3	4	3
5	1	9	4	4	4	1	2	4	4
	2	8	4	4	4	1	2	4	4
	3	8	4	4	4	1	2	4	4
6	1	1	4	4	4	5	3	1	4
	2	5	4	4	4	5	3	1	4
	3	10	4	4	4	5	3	1	4
7	1	8	5	4	2	4	4	4	1
	2	8	5	4	2	4	4	4	1
	3	6	5	4	2	4	4	4	1
8	1	8	3	3	5	2	1	4	3
	2	2	3	3	5	2	1	4	3
	3	7	3	3	5	2	1	4	3
9	1	5	5	5	4	2	1	4	3
	2	3	5	5	4	2	1	4	3
	3	3	5	5	4	2	1	4	3
10	1	8	2	4	1	4	2	1	1
	2	7	2	4	1	4	2	1	1
	3	6	2	4	1	4	2	1	1
11	1	0	0	0	0	0	0	0	0
17	21	18	16	15	31	62
